************************************************************************
file with basedata            : mm3_.bas
initial value random generator: 239511140
************************************************************************
projects                      :  1
jobs (incl. supersource/sink ):  12
horizon                       :  68
RESOURCES
  - renewable                 :  2   R
  - nonrenewable              :  2   N
  - doubly constrained        :  0   D
************************************************************************
PROJECT INFORMATION:
pronr.  #jobs rel.date duedate tardcost  MPM-Time
    1     10      0       15        1       15
************************************************************************
PRECEDENCE RELATIONS:
jobnr.    #modes  #successors   successors
   0        1          3           1   2   3
   1        3          3           4   5   6
   2        3          1           5
   3        3          1           6
   4        3          2           7  10
   5        3          2           8  10
   6        3          2           9  10
   7        3          1           8
   8        3          1          11
   9        3          1          11
  10        3          1          11
  11        1          0        
************************************************************************
REQUESTS/DURATIONS:
jobnr. mode duration  R 1  R 2  R 3  R 4  E(W 1)
------------------------------------------------------------------------
  0      1     0       0    0    0    0     0
  1      1     1       0    9    5    0    14
  2      1     4       0    5    0    9    56
  3      1     1       0    8   10    0    18
  4      1     3       8    0    0   10    54
  5      1     3      10    0    6    0    48
  6      1     2       6    0    8    0    28
  7      1     4       8    0    0   10    72
  8      1     7       0    6    3    0    63
  9      1     2       0    4    8    0    24
 10      1     6       6    0    6    0    72
 11      1     0       0    0    0    0     0
************************************************************************
RESOURCEAVAILABILITIES:
  R 1
   113
************************************************************************
RESOURCE LIMITS:
jobnr.  l(R 1)  u(R 1)
------------------------------------------------------------------------
  0        0       0
  1        8      14
  2        8      14
  3        9      18
  4        9      18
  5        8      16
  6        7      14
  7        9      18
  8        5       9
  9        6      12
 10        6      12
 11        0       0
************************************************************************
SCENARIOS:
------------------------------------------------------------------------
RESOURCE k = 1
s = 1: (0, 8, 83, 32, 39, 54, 28, 73, 59, 26, 52, 0)
s = 2: (0, 19, 74, 14, 76, 36, 39, 69, 85, 23, 66, 0)
s = 3: (0, 14, 38, 25, 58, 39, 35, 75, 40, 22, 56, 0)
s = 4: (0, 14, 38, 11, 65, 43, 22, 77, 53, 29, 80, 0)
s = 5: (0, 8, 78, 19, 99, 27, 18, 83, 79, 26, 93, 0)
s = 6: (0, 20, 48, 14, 39, 50, 27, 83, 56, 24, 45, 0)
s = 7: (0, 18, 49, 19, 33, 61, 21, 59, 63, 22, 50, 0)
s = 8: (0, 15, 40, 24, 51, 47, 32, 84, 39, 18, 87, 0)
s = 9: (0, 11, 35, 18, 34, 36, 44, 108, 82, 15, 86, 0)
s = 10: (0, 14, 51, 15, 46, 48, 28, 55, 99, 30, 44, 0)
s = 11: (0, 17, 66, 16, 41, 47, 21, 53, 43, 25, 83, 0)
s = 12: (0, 14, 75, 15, 29, 41, 26, 83, 68, 20, 90, 0)
s = 13: (0, 9, 35, 10, 65, 51, 30, 51, 63, 22, 72, 0)
s = 14: (0, 18, 67, 21, 66, 60, 27, 47, 57, 27, 50, 0)
s = 15: (0, 11, 58, 17, 53, 41, 28, 48, 60, 30, 108, 0)
s = 16: (0, 11, 36, 19, 43, 55, 29, 52, 78, 22, 86, 0)
s = 17: (0, 11, 84, 16, 41, 38, 27, 91, 63, 30, 43, 0)
s = 18: (0, 18, 32, 22, 72, 61, 22, 75, 84, 27, 70, 0)
s = 19: (0, 10, 58, 18, 51, 52, 47, 84, 104, 21, 49, 0)
s = 20: (0, 17, 49, 26, 60, 62, 24, 65, 91, 34, 96, 0)
s = 21: (0, 20, 30, 13, 47, 43, 20, 93, 62, 14, 112, 0)
s = 22: (0, 9, 73, 26, 54, 37, 31, 81, 61, 20, 50, 0)
s = 23: (0, 16, 91, 22, 32, 39, 35, 77, 97, 22, 97, 0)
s = 24: (0, 13, 82, 24, 68, 51, 23, 51, 45, 21, 75, 0)
s = 25: (0, 20, 64, 12, 49, 34, 18, 68, 64, 24, 109, 0)
s = 26: (0, 13, 57, 24, 89, 45, 24, 86, 83, 18, 39, 0)
s = 27: (0, 14, 39, 11, 30, 50, 27, 61, 47, 24, 68, 0)
s = 28: (0, 18, 41, 15, 34, 35, 34, 94, 73, 24, 105, 0)
s = 29: (0, 23, 72, 36, 45, 65, 25, 53, 79, 21, 80, 0)
s = 30: (0, 17, 49, 21, 65, 36, 40, 52, 50, 18, 52, 0)
s = 31: (0, 10, 44, 29, 44, 48, 20, 114, 63, 32, 52, 0)
s = 32: (0, 12, 52, 23, 35, 44, 23, 38, 90, 18, 81, 0)
s = 33: (0, 17, 35, 14, 36, 44, 30, 73, 78, 22, 65, 0)
s = 34: (0, 17, 59, 17, 57, 34, 30, 101, 44, 29, 57, 0)
s = 35: (0, 15, 38, 17, 48, 61, 27, 65, 64, 15, 67, 0)
s = 36: (0, 13, 71, 18, 66, 45, 17, 88, 91, 37, 82, 0)
s = 37: (0, 13, 31, 25, 51, 34, 33, 121, 53, 14, 67, 0)
s = 38: (0, 15, 69, 20, 54, 45, 22, 74, 59, 16, 44, 0)
s = 39: (0, 10, 64, 12, 35, 49, 23, 73, 48, 25, 73, 0)
s = 40: (0, 11, 53, 11, 43, 56, 27, 44, 39, 24, 66, 0)
s = 41: (0, 13, 57, 13, 76, 74, 24, 48, 58, 37, 58, 0)
s = 42: (0, 23, 41, 17, 80, 56, 38, 68, 72, 45, 69, 0)
s = 43: (0, 15, 36, 23, 36, 49, 42, 87, 71, 26, 81, 0)
s = 44: (0, 14, 44, 17, 64, 58, 24, 99, 66, 17, 41, 0)
s = 45: (0, 15, 55, 18, 34, 45, 24, 101, 48, 29, 79, 0)
s = 46: (0, 20, 69, 11, 56, 38, 24, 95, 50, 26, 55, 0)
s = 47: (0, 13, 48, 16, 41, 34, 22, 92, 69, 13, 98, 0)
s = 48: (0, 10, 58, 21, 50, 83, 22, 70, 56, 27, 96, 0)
s = 49: (0, 21, 46, 22, 65, 58, 26, 51, 60, 29, 53, 0)
s = 50: (0, 15, 65, 20, 48, 51, 31, 103, 108, 20, 132, 0)
s = 51: (0, 15, 83, 16, 74, 42, 23, 100, 50, 34, 47, 0)
s = 52: (0, 18, 40, 19, 31, 34, 33, 62, 68, 32, 69, 0)
s = 53: (0, 15, 50, 14, 48, 49, 31, 50, 68, 29, 98, 0)
s = 54: (0, 18, 55, 11, 47, 43, 28, 95, 58, 24, 55, 0)
s = 55: (0, 22, 41, 14, 63, 72, 20, 100, 44, 28, 82, 0)
s = 56: (0, 9, 67, 22, 70, 39, 16, 89, 56, 19, 87, 0)
s = 57: (0, 10, 47, 27, 52, 63, 24, 83, 60, 21, 44, 0)
s = 58: (0, 16, 37, 23, 57, 39, 19, 89, 42, 15, 121, 0)
s = 59: (0, 19, 79, 13, 38, 40, 26, 79, 55, 24, 87, 0)
s = 60: (0, 14, 58, 14, 43, 64, 31, 43, 43, 20, 62, 0)
s = 61: (0, 21, 42, 20, 53, 39, 25, 92, 45, 19, 93, 0)
s = 62: (0, 15, 49, 17, 34, 56, 20, 63, 37, 32, 52, 0)
s = 63: (0, 15, 38, 12, 44, 41, 15, 67, 67, 13, 60, 0)
s = 64: (0, 17, 33, 29, 52, 46, 28, 58, 70, 20, 113, 0)
s = 65: (0, 17, 59, 18, 54, 46, 34, 57, 109, 25, 75, 0)
s = 66: (0, 14, 78, 20, 41, 60, 39, 57, 70, 17, 81, 0)
s = 67: (0, 21, 44, 15, 40, 79, 32, 51, 51, 26, 61, 0)
s = 68: (0, 8, 44, 18, 88, 46, 20, 57, 76, 35, 43, 0)
s = 69: (0, 13, 45, 14, 37, 36, 28, 47, 59, 14, 103, 0)
s = 70: (0, 16, 55, 17, 32, 55, 28, 74, 41, 18, 54, 0)
s = 71: (0, 12, 56, 21, 68, 37, 19, 99, 78, 29, 111, 0)
s = 72: (0, 12, 50, 19, 49, 35, 16, 41, 90, 24, 67, 0)
s = 73: (0, 17, 63, 13, 67, 43, 42, 40, 45, 36, 62, 0)
s = 74: (0, 13, 62, 19, 38, 41, 23, 57, 40, 21, 63, 0)
s = 75: (0, 11, 73, 13, 81, 43, 22, 57, 39, 23, 97, 0)
s = 76: (0, 14, 63, 20, 59, 60, 23, 76, 57, 22, 65, 0)
s = 77: (0, 8, 59, 24, 44, 53, 27, 78, 62, 29, 85, 0)
s = 78: (0, 16, 67, 21, 76, 31, 30, 82, 89, 32, 59, 0)
s = 79: (0, 11, 78, 17, 46, 47, 21, 87, 50, 20, 73, 0)
s = 80: (0, 16, 55, 17, 48, 43, 30, 108, 84, 27, 88, 0)
s = 81: (0, 10, 70, 10, 43, 48, 18, 89, 73, 17, 81, 0)
s = 82: (0, 13, 65, 28, 75, 48, 20, 76, 52, 17, 56, 0)
s = 83: (0, 16, 49, 15, 63, 51, 31, 150, 56, 32, 84, 0)
s = 84: (0, 17, 79, 19, 52, 41, 47, 64, 54, 14, 119, 0)
s = 85: (0, 11, 76, 12, 64, 32, 23, 90, 71, 34, 107, 0)
s = 86: (0, 9, 43, 17, 54, 51, 41, 63, 55, 20, 41, 0)
s = 87: (0, 10, 65, 18, 50, 41, 31, 81, 101, 26, 89, 0)
s = 88: (0, 19, 101, 17, 58, 41, 36, 53, 56, 14, 76, 0)
s = 89: (0, 18, 42, 14, 60, 32, 21, 57, 34, 37, 91, 0)
s = 90: (0, 10, 41, 16, 46, 39, 42, 81, 57, 18, 59, 0)
s = 91: (0, 8, 58, 26, 43, 32, 20, 44, 46, 17, 71, 0)
s = 92: (0, 9, 48, 15, 40, 57, 31, 75, 37, 14, 95, 0)
s = 93: (0, 12, 66, 22, 55, 51, 21, 94, 82, 26, 73, 0)
s = 94: (0, 17, 61, 21, 76, 47, 30, 79, 40, 33, 42, 0)
s = 95: (0, 10, 82, 20, 59, 42, 37, 108, 74, 28, 45, 0)
s = 96: (0, 12, 74, 12, 32, 34, 17, 56, 34, 23, 119, 0)
s = 97: (0, 10, 47, 21, 52, 63, 22, 77, 53, 27, 58, 0)
s = 98: (0, 22, 67, 23, 38, 40, 18, 97, 76, 22, 102, 0)
s = 99: (0, 12, 38, 12, 67, 28, 42, 45, 48, 30, 77, 0)
s = 100: (0, 8, 41, 17, 55, 31, 42, 101, 71, 28, 45, 0)
s = 101: (0, 22, 74, 14, 49, 43, 48, 70, 98, 22, 84, 0)
s = 102: (0, 21, 99, 22, 68, 52, 31, 68, 82, 32, 88, 0)
s = 103: (0, 17, 48, 27, 61, 42, 29, 101, 47, 19, 51, 0)
s = 104: (0, 11, 62, 16, 46, 34, 21, 60, 55, 16, 44, 0)
s = 105: (0, 15, 61, 12, 68, 32, 22, 97, 95, 20, 62, 0)
s = 106: (0, 10, 61, 17, 67, 68, 21, 56, 94, 23, 51, 0)
s = 107: (0, 13, 55, 15, 38, 33, 42, 71, 88, 23, 73, 0)
s = 108: (0, 20, 57, 14, 44, 51, 20, 94, 69, 36, 69, 0)
s = 109: (0, 11, 38, 22, 49, 55, 26, 80, 65, 16, 82, 0)
s = 110: (0, 17, 59, 21, 39, 37, 26, 91, 82, 26, 54, 0)
s = 111: (0, 11, 72, 12, 43, 51, 29, 90, 45, 27, 70, 0)
s = 112: (0, 15, 36, 17, 76, 32, 28, 91, 51, 25, 74, 0)
s = 113: (0, 10, 45, 32, 36, 52, 37, 73, 73, 26, 59, 0)
s = 114: (0, 11, 58, 25, 48, 44, 28, 49, 107, 20, 80, 0)
s = 115: (0, 12, 88, 16, 29, 32, 18, 60, 55, 25, 56, 0)
s = 116: (0, 8, 44, 16, 37, 35, 19, 90, 45, 24, 78, 0)
s = 117: (0, 9, 62, 16, 74, 57, 39, 59, 70, 29, 79, 0)
s = 118: (0, 12, 59, 29, 33, 42, 42, 97, 61, 22, 77, 0)
s = 119: (0, 15, 43, 23, 42, 46, 40, 74, 73, 29, 68, 0)
s = 120: (0, 9, 56, 17, 72, 49, 24, 65, 44, 23, 42, 0)
s = 121: (0, 9, 92, 22, 36, 45, 26, 79, 47, 24, 79, 0)
s = 122: (0, 17, 38, 13, 60, 48, 33, 91, 43, 18, 61, 0)
s = 123: (0, 12, 55, 27, 48, 55, 22, 93, 55, 30, 62, 0)
s = 124: (0, 11, 46, 19, 63, 36, 26, 43, 80, 41, 72, 0)
s = 125: (0, 17, 34, 17, 62, 48, 33, 61, 54, 21, 77, 0)
s = 126: (0, 13, 55, 11, 46, 50, 17, 65, 56, 28, 55, 0)
s = 127: (0, 12, 50, 13, 69, 52, 23, 83, 57, 29, 90, 0)
s = 128: (0, 24, 53, 16, 96, 42, 33, 71, 71, 41, 96, 0)
s = 129: (0, 10, 56, 14, 54, 34, 31, 91, 97, 16, 57, 0)
s = 130: (0, 16, 41, 11, 45, 35, 30, 58, 43, 18, 99, 0)
s = 131: (0, 12, 53, 19, 38, 63, 24, 78, 67, 31, 133, 0)
s = 132: (0, 20, 70, 16, 42, 44, 25, 69, 70, 30, 92, 0)
s = 133: (0, 19, 72, 12, 41, 44, 44, 58, 63, 31, 80, 0)
s = 134: (0, 10, 51, 13, 80, 66, 27, 102, 33, 22, 78, 0)
s = 135: (0, 11, 53, 31, 72, 43, 20, 42, 37, 28, 58, 0)
s = 136: (0, 14, 62, 12, 59, 41, 29, 39, 41, 17, 49, 0)
s = 137: (0, 21, 62, 15, 59, 31, 24, 96, 97, 25, 86, 0)
s = 138: (0, 23, 41, 18, 77, 52, 34, 77, 50, 30, 67, 0)
s = 139: (0, 9, 36, 17, 48, 70, 31, 63, 80, 25, 62, 0)
s = 140: (0, 16, 36, 19, 56, 64, 31, 91, 38, 14, 91, 0)
s = 141: (0, 11, 60, 11, 40, 55, 35, 46, 47, 21, 76, 0)
s = 142: (0, 14, 44, 14, 63, 54, 22, 42, 55, 40, 65, 0)
s = 143: (0, 17, 72, 15, 65, 59, 19, 70, 38, 30, 63, 0)
s = 144: (0, 29, 72, 15, 70, 52, 21, 68, 63, 20, 78, 0)
s = 145: (0, 18, 64, 16, 54, 51, 37, 107, 59, 31, 56, 0)
s = 146: (0, 11, 63, 18, 41, 50, 22, 111, 83, 23, 81, 0)
s = 147: (0, 11, 51, 24, 34, 63, 27, 52, 80, 25, 129, 0)
s = 148: (0, 12, 45, 18, 62, 41, 23, 58, 54, 26, 78, 0)
s = 149: (0, 12, 41, 20, 36, 29, 36, 59, 68, 25, 86, 0)
s = 150: (0, 18, 84, 17, 67, 72, 20, 80, 81, 24, 43, 0)
s = 151: (0, 18, 75, 13, 88, 38, 21, 54, 54, 24, 66, 0)
s = 152: (0, 11, 72, 22, 31, 70, 24, 93, 79, 19, 96, 0)
s = 153: (0, 14, 37, 22, 48, 51, 31, 46, 81, 21, 71, 0)
s = 154: (0, 12, 78, 20, 54, 56, 36, 55, 66, 17, 82, 0)
s = 155: (0, 18, 35, 13, 63, 40, 31, 60, 37, 25, 40, 0)
s = 156: (0, 9, 64, 22, 58, 59, 42, 62, 35, 24, 60, 0)
s = 157: (0, 19, 51, 17, 48, 53, 21, 65, 56, 25, 54, 0)
s = 158: (0, 12, 47, 15, 51, 65, 23, 78, 85, 23, 85, 0)
s = 159: (0, 9, 42, 27, 38, 54, 34, 63, 56, 17, 70, 0)
s = 160: (0, 10, 44, 20, 52, 27, 28, 68, 87, 22, 94, 0)
s = 161: (0, 9, 85, 14, 58, 58, 25, 65, 77, 20, 89, 0)
s = 162: (0, 15, 71, 12, 42, 39, 23, 47, 62, 38, 56, 0)
s = 163: (0, 27, 36, 21, 50, 39, 30, 64, 64, 21, 68, 0)
s = 164: (0, 10, 30, 24, 61, 76, 25, 49, 63, 31, 65, 0)
s = 165: (0, 15, 93, 24, 54, 81, 23, 48, 84, 18, 68, 0)
s = 166: (0, 14, 43, 30, 31, 64, 29, 61, 61, 22, 45, 0)
s = 167: (0, 16, 71, 15, 71, 37, 25, 99, 72, 38, 59, 0)
s = 168: (0, 10, 39, 22, 53, 55, 27, 61, 35, 27, 64, 0)
s = 169: (0, 15, 96, 12, 31, 36, 28, 102, 74, 32, 56, 0)
s = 170: (0, 11, 35, 27, 43, 32, 19, 115, 74, 14, 66, 0)
s = 171: (0, 12, 86, 14, 79, 51, 25, 113, 53, 24, 94, 0)
s = 172: (0, 14, 43, 11, 37, 44, 33, 55, 37, 26, 131, 0)
s = 173: (0, 15, 44, 15, 47, 50, 22, 74, 69, 19, 65, 0)
s = 174: (0, 10, 36, 13, 38, 63, 27, 93, 66, 17, 109, 0)
s = 175: (0, 16, 54, 16, 38, 53, 25, 80, 94, 18, 50, 0)
s = 176: (0, 13, 41, 13, 58, 57, 27, 78, 67, 34, 43, 0)
s = 177: (0, 15, 41, 22, 48, 47, 31, 47, 40, 33, 60, 0)
s = 178: (0, 10, 52, 17, 43, 37, 28, 81, 49, 20, 43, 0)
s = 179: (0, 13, 74, 16, 41, 45, 22, 79, 82, 22, 53, 0)
s = 180: (0, 15, 40, 18, 77, 69, 26, 69, 43, 28, 52, 0)
s = 181: (0, 12, 45, 13, 45, 37, 25, 81, 73, 29, 88, 0)
s = 182: (0, 12, 62, 23, 62, 47, 31, 61, 54, 15, 53, 0)
s = 183: (0, 15, 55, 20, 72, 46, 43, 71, 52, 27, 61, 0)
s = 184: (0, 13, 49, 20, 82, 59, 29, 45, 52, 34, 59, 0)
s = 185: (0, 18, 86, 10, 61, 48, 19, 83, 73, 20, 103, 0)
s = 186: (0, 13, 37, 27, 47, 79, 27, 82, 87, 20, 64, 0)
s = 187: (0, 13, 94, 21, 53, 45, 25, 40, 53, 27, 85, 0)
s = 188: (0, 10, 70, 12, 36, 31, 16, 98, 59, 45, 82, 0)
s = 189: (0, 12, 59, 22, 78, 38, 26, 93, 64, 30, 53, 0)
s = 190: (0, 17, 80, 15, 42, 30, 24, 67, 42, 13, 68, 0)
s = 191: (0, 21, 78, 15, 43, 28, 26, 54, 80, 19, 72, 0)
s = 192: (0, 19, 35, 19, 71, 32, 21, 44, 48, 31, 91, 0)
s = 193: (0, 10, 54, 13, 78, 48, 26, 59, 37, 15, 51, 0)
s = 194: (0, 11, 49, 18, 50, 41, 30, 87, 42, 24, 146, 0)
s = 195: (0, 9, 98, 13, 46, 54, 37, 84, 56, 39, 75, 0)
s = 196: (0, 20, 57, 12, 61, 75, 51, 76, 58, 16, 54, 0)
s = 197: (0, 10, 70, 11, 65, 64, 16, 85, 53, 21, 68, 0)
s = 198: (0, 17, 37, 23, 62, 43, 17, 80, 76, 18, 99, 0)
s = 199: (0, 19, 38, 26, 50, 28, 21, 132, 67, 18, 71, 0)
s = 200: (0, 13, 95, 22, 37, 45, 25, 62, 61, 16, 40, 0)
************************************************************************
ES/LS-VALUES:
jobnr.   ES(i)    LS(i)
------------------------------------------------------------------------
  0        0        0
  1        0       37
  2        0       41
  3        0       49
  4        2       40
  5        7       49
  6        2       51
  7        7       46
  8       15       55
  9        5       64
 10       12       55
 11       27       68
************************************************************************
BIG-M-VALUES:
M1 = 25, M2 = 150
************************************************************************
